RAW/CMTY/fspd/CMT7Y.vrp_seed-9.out
900.5352455	7.9	35.529
