RAW/CMTY/fspd/CMT7Y.vrp_seed-9.sol
Route #1: 34 52 27 13 57 15 29 45 4
Route #2: 7 53 35 19 54 8 46 67
Route #3: 63 23 56 41 42 43 1
Route #4: 62 22 64 61 28 2
Route #5: 14 59 11 66 65 38
Route #6: 12 72 39 31 10 58 26
Route #7: 9 25 55 18 50 32
Route #8: 74 21 69 36 47 48 30
Route #9: 6 33 73 68 75
Route #10: 17 40 44 3 24 49 16 51
Route #11: 5 37 20 70 60 71
Cost 900.535245